10J3M/DAT/10J3MNTR-1.dat
10 3
22.1328 28.0414
34.9522 42.7815
35.6662 28.294
26.0581 40.4516
23.2389 15.9493
27.0843 1.6081
18.0649 9.5117
20.8939 48.6786
24.4378 30.3737
20.0069 10.5674
64.0643