10J3M/SOL/10J3MNTR-1.sol
solution status: optimal solution found
objective value:                     73.9102932671802
x#1#2                                               1 	(obj:0)
x#2#1                               0.177040431907834 	(obj:0)
x#2#3                               0.822959568092166 	(obj:0)
x#3#3                                               1 	(obj:0)
x#4#1                               0.619649160972619 	(obj:0)
x#5#1                                               1 	(obj:0)
x#6#2                               0.649987415170072 	(obj:0)
x#6#3                               0.350012584829928 	(obj:0)
x#7#1                                               1 	(obj:0)
x#9#1                              0.0308073118088238 	(obj:0)
x#9#2                               0.969192688191176 	(obj:0)
x#10#1                              0.475775755213896 	(obj:0)
x#10#2                              0.524224244786104 	(obj:0)
z                                    73.9102932671802 	(obj:1)
